
  27    0


   0  13 2 3 4 5 6 8 9 10 11 23 24 25 26 
  10   6 19 17 16 14 13 12 
   5   5 18 14 13 12 7 
   3   5 22 19 15 13 12 
   2   5 21 18 15 14 12 
   1   3 17 15 12 
   8   1 20 
   6   1 14 
   7   1 16 
   9   1 13 
   1   1 12 
   9   1 27
   8   1 27
   5   1 27
   2   1 27
   5   1 27
   3   1 27
   4   1 27
   6   1 27
   4   1 27
   3   1 27
   6   1 27
   8   1 27
  10   1 27
   1   1 27
  10   1 27
   0   0 
